c Result of efficient AIG-to-CNF conversion using package CNF
p cnf 482 1853
-2 3 367 368 415 0
-2 -3 -367 368 415 0
2 -415 0
2 -3 367 0
2 -368 0
2 3 -367 0
3 -4 -277 0
3 -277 366 0
3 -4 366 0
-3 277 -366 0
-3 4 277 0
-3 4 -366 0
-4 89 -93 0
-4 5 93 0
4 -5 93 0
4 -89 -93 0
-5 -6 -88 0
-5 6 88 0
5 6 -88 0
5 -6 88 0
-6 7 8 0
-6 7 9 0
6 -7 0
6 -8 -9 0
7 -448 -480 0
-7 448 0
-7 480 0
-8 448 480 0
8 -448 0
8 -480 0
-9 10 11 0
-9 10 12 0
9 -10 0
9 -11 -12 0
10 -447 -479 0
-10 447 0
-10 479 0
-11 447 479 0
11 -447 0
11 -479 0
-12 478 13 0
-12 446 478 0
-12 446 13 0
12 -446 -478 0
12 -478 -13 0
12 -446 -13 0
-13 14 18 0
-13 18 41 0
-13 18 45 0
13 -18 0
13 -14 -41 -45 0
14 -477 -15 0
14 -445 -15 0
-14 15 0
-14 445 477 0
15 -476 -16 0
15 -444 -16 0
-15 16 0
-15 444 476 0
16 -443 -17 0
16 -475 -17 0
-16 17 0
-16 443 475 0
-17 442 474 0
17 -442 0
17 -474 0
-18 445 477 22 0
-18 477 19 22 0
-18 445 19 22 0
18 -445 -477 0
18 -477 -19 0
18 -22 0
18 -445 -19 0
-19 476 20 0
-19 444 476 0
-19 444 20 0
19 -444 -476 0
19 -476 -20 0
19 -444 -20 0
-20 443 21 0
-20 475 21 0
-20 443 475 0
20 -443 -475 0
20 -475 -21 0
20 -443 -21 0
21 -442 -474 0
-21 442 0
-21 474 0
22 -14 -23 0
-22 14 0
-22 23 0
-23 24 26 31 0
-23 24 26 34 0
23 -24 0
23 -26 0
23 -31 -34 0
-24 441 25 0
-24 473 25 0
-24 441 473 0
24 -441 -473 0
24 -473 -25 0
24 -441 -25 0
25 -440 -472 0
-25 440 0
-25 472 0
26 -27 -29 0
-26 27 0
-26 29 0
-27 439 28 0
-27 471 28 0
-27 439 471 0
27 -439 -471 0
27 -471 -28 0
27 -439 -28 0
28 -438 -470 0
-28 438 0
-28 470 0
29 -441 -30 0
29 -473 -30 0
-29 30 0
-29 441 473 0
-30 440 472 0
30 -440 0
30 -472 0
31 -29 -32 0
-31 29 0
-31 32 0
32 -439 -33 0
32 -471 -33 0
-32 33 0
-32 439 471 0
-33 438 470 0
33 -438 0
33 -470 0
-34 437 469 36 0
-34 437 35 36 0
-34 469 35 36 0
34 -437 -469 0
34 -469 -35 0
34 -36 0
34 -437 -35 0
35 -436 -468 0
-35 436 0
-35 468 0
36 -37 -39 0
-36 37 0
-36 39 0
-37 435 38 0
-37 467 38 0
-37 435 467 0
37 -435 -467 0
37 -467 -38 0
37 -435 -38 0
38 -434 -466 0
-38 434 0
-38 466 0
39 -437 -40 0
39 -469 -40 0
-39 40 0
-39 437 469 0
-40 436 468 0
40 -436 0
40 -468 0
41 -31 -42 0
-41 31 0
-41 42 0
42 -39 -43 0
-42 39 0
-42 43 0
43 -435 -44 0
43 -467 -44 0
-43 44 0
-43 435 467 0
-44 434 466 0
44 -434 0
44 -466 0
-45 46 68 0
-45 46 64 0
45 -46 0
45 -64 -68 0
-46 47 49 54 0
-46 47 49 57 0
46 -47 0
46 -49 0
46 -54 -57 0
-47 433 48 0
-47 465 48 0
-47 433 465 0
47 -433 -465 0
47 -465 -48 0
47 -433 -48 0
48 -432 -464 0
-48 432 0
-48 464 0
49 -50 -52 0
-49 50 0
-49 52 0
50 -433 -51 0
50 -465 -51 0
-50 51 0
-50 433 465 0
-51 432 464 0
51 -432 0
51 -464 0
-52 431 53 0
-52 463 53 0
-52 431 463 0
52 -431 -463 0
52 -463 -53 0
52 -431 -53 0
53 -430 -462 0
-53 430 0
-53 462 0
54 -50 -55 0
-54 50 0
-54 55 0
55 -431 -56 0
55 -463 -56 0
-55 56 0
-55 431 463 0
-56 430 462 0
56 -430 0
56 -462 0
-57 429 461 59 0
-57 429 58 59 0
-57 461 58 59 0
57 -429 -461 0
57 -461 -58 0
57 -59 0
57 -429 -58 0
58 -428 -460 0
-58 428 0
-58 460 0
59 -60 -62 0
-59 60 0
-59 62 0
60 -429 -61 0
60 -461 -61 0
-60 61 0
-60 429 461 0
-61 428 460 0
61 -428 0
61 -460 0
-62 427 63 0
-62 459 63 0
-62 427 459 0
62 -427 -459 0
62 -459 -63 0
62 -427 -63 0
63 -426 -458 0
-63 426 0
-63 458 0
64 -54 -65 0
-64 54 0
-64 65 0
65 -60 -66 0
-65 60 0
-65 66 0
66 -427 -67 0
66 -459 -67 0
-66 67 0
-66 427 459 0
-67 426 458 0
67 -426 0
67 -458 0
-68 69 79 0
-68 69 76 0
68 -69 0
68 -76 -79 0
-69 425 457 71 0
-69 425 70 71 0
-69 457 70 71 0
69 -425 -457 0
69 -457 -70 0
69 -71 0
69 -425 -70 0
70 -424 -456 0
-70 424 0
-70 456 0
71 -72 -74 0
-71 72 0
-71 74 0
-72 423 73 0
-72 455 73 0
-72 423 455 0
72 -423 -455 0
72 -455 -73 0
72 -423 -73 0
73 -422 -454 0
-73 422 0
-73 454 0
74 -425 -75 0
74 -457 -75 0
-74 75 0
-74 425 457 0
-75 424 456 0
75 -424 0
75 -456 0
76 -74 -77 0
-76 74 0
-76 77 0
77 -423 -78 0
77 -455 -78 0
-77 78 0
-77 423 455 0
-78 422 454 0
78 -422 0
78 -454 0
-79 80 81 83 0
-79 80 82 83 0
79 -80 0
79 -83 0
79 -81 -82 0
80 -421 -453 0
-80 421 0
-80 453 0
-81 421 453 0
81 -421 0
81 -453 0
82 -420 -452 0
-82 420 0
-82 452 0
83 -84 -86 0
-83 84 0
-83 86 0
-84 419 85 0
-84 451 85 0
-84 419 451 0
84 -419 -451 0
84 -451 -85 0
84 -419 -85 0
85 -418 -450 0
-85 418 0
-85 450 0
86 -421 -87 0
86 -453 -87 0
-86 87 0
-86 421 453 0
-87 420 452 0
87 -420 0
87 -452 0
88 449 -481 0
88 -449 481 0
-88 -449 -481 0
-88 449 481 0
-89 88 90 0
-89 -88 -90 0
89 -88 90 0
89 88 -90 0
-90 7 8 0
-90 7 91 0
90 -7 0
90 -8 -91 0
-91 10 11 0
-91 10 92 0
91 -10 0
91 -11 -92 0
92 -446 -478 0
-92 446 0
-92 478 0
93 -94 272 0
93 272 -275 0
93 -94 -275 0
93 -275 -276 0
93 272 -276 0
-93 -272 275 0
-93 94 -272 276 0
-93 94 275 276 0
94 -267 271 0
94 -95 263 271 0
-94 -271 0
-94 95 267 0
-94 -263 267 0
-95 -254 260 0
-95 96 248 260 0
95 -260 0
95 -96 254 0
95 -248 254 0
96 -236 242 0
96 -97 230 242 0
-96 -242 0
-96 97 236 0
-96 -230 236 0
-97 -218 224 0
-97 98 212 224 0
97 -224 0
97 -98 218 0
97 -212 218 0
98 -200 206 0
98 -99 194 206 0
-98 -206 0
-98 99 200 0
-98 -194 200 0
-99 -183 189 0
-99 100 177 189 0
99 -189 0
99 -100 183 0
99 -177 183 0
100 -165 171 0
100 -101 159 171 0
-100 -171 0
-100 101 165 0
-100 -159 165 0
-101 -147 153 0
-101 102 142 153 0
101 -153 0
101 -102 147 0
101 -142 147 0
102 -130 136 0
102 -103 124 136 0
-102 -136 0
-102 103 130 0
-102 -124 130 0
-103 -109 119 0
-103 104 106 119 0
103 -119 0
103 -106 109 0
103 -104 109 0
104 -418 105 0
104 -450 105 0
104 -85 105 0
-104 -105 0
-104 418 450 85 0
105 419 -451 0
105 -419 451 0
-105 -419 -451 0
-105 419 451 0
106 -107 -108 0
-106 107 0
-106 108 0
-107 418 450 0
107 -418 0
107 -450 0
-108 -85 -105 0
-108 85 105 0
108 85 -105 0
108 -85 105 0
-109 112 -114 0
-109 -110 117 0
-109 -110 -114 0
-109 112 117 0
109 110 -112 0
109 114 -117 0
-110 -84 -111 0
-110 84 111 0
110 84 -111 0
110 -84 111 0
111 420 -452 0
111 -420 452 0
-111 -420 -452 0
-111 420 452 0
-112 111 113 0
112 -111 0
112 -113 0
-113 419 85 0
-113 451 85 0
113 -85 0
113 -419 -451 0
-114 -115 -116 0
-114 115 116 0
114 115 -116 0
114 -115 116 0
-115 82 84 0
-115 82 87 0
115 -82 0
115 -84 -87 0
116 421 -453 0
116 -421 453 0
-116 -421 -453 0
-116 421 453 0
-117 116 118 0
-117 -116 -118 0
117 -116 118 0
117 116 -118 0
-118 82 87 0
-118 82 113 0
118 -82 0
118 -87 -113 0
-119 114 -122 0
-119 -117 120 0
-119 -117 -122 0
-119 114 120 0
119 -114 117 0
119 -120 122 0
-120 -79 -121 0
-120 79 121 0
120 79 -121 0
120 -79 121 0
121 422 -454 0
121 -422 454 0
-121 -422 -454 0
-121 422 454 0
-122 121 123 0
-122 -121 -123 0
122 -121 123 0
122 121 -123 0
-123 80 82 113 0
-123 80 82 86 0
123 -80 0
123 -82 0
123 -86 -113 0
-124 122 -125 0
-124 -120 128 0
-124 -120 -125 0
-124 122 128 0
124 120 -122 0
124 125 -128 0
-125 -126 -127 0
-125 126 127 0
125 126 -127 0
125 -126 127 0
-126 73 78 0
-126 73 79 0
126 -73 0
126 -78 -79 0
127 423 -455 0
127 -423 455 0
-127 -423 -455 0
-127 423 455 0
-128 127 129 0
-128 -127 -129 0
128 -127 129 0
128 127 -129 0
-129 73 78 0
-129 73 123 0
129 -73 0
129 -78 -123 0
-130 125 -134 0
-130 -128 131 0
-130 -128 -134 0
-130 125 131 0
130 -125 128 0
130 -131 134 0
-131 -132 -133 0
-131 132 133 0
131 132 -133 0
131 -132 133 0
-132 72 79 0
-132 72 77 0
132 -72 0
132 -77 -79 0
133 424 -456 0
133 -424 456 0
-133 -424 -456 0
-133 424 456 0
-134 133 135 0
-134 -133 -135 0
134 -133 135 0
134 133 -135 0
-135 72 123 0
-135 72 77 0
135 -72 0
135 -77 -123 0
-136 134 -137 0
-136 -131 140 0
-136 -131 -137 0
-136 134 140 0
136 131 -134 0
136 137 -140 0
-137 -138 -139 0
-137 138 139 0
137 138 -139 0
137 -138 139 0
-138 70 75 0
-138 70 132 0
138 -70 0
138 -75 -132 0
139 425 -457 0
139 -425 457 0
-139 -425 -457 0
-139 425 457 0
-140 139 141 0
-140 -139 -141 0
140 -139 141 0
140 139 -141 0
-141 70 75 0
-141 70 135 0
141 -70 0
141 -75 -135 0
-142 137 -145 0
-142 -140 143 0
-142 -140 -145 0
-142 137 143 0
142 -137 140 0
142 -143 145 0
-143 -68 -144 0
-143 68 144 0
143 68 -144 0
143 -68 144 0
144 426 -458 0
144 -426 458 0
-144 -426 -458 0
-144 426 458 0
-145 144 146 0
-145 -144 -146 0
145 -144 146 0
145 144 -146 0
-146 69 123 0
-146 69 76 0
146 -69 0
146 -76 -123 0
-147 145 -148 0
-147 -143 151 0
-147 -143 -148 0
-147 145 151 0
147 143 -145 0
147 148 -151 0
-148 -149 -150 0
-148 149 150 0
148 149 -150 0
148 -149 150 0
-149 63 67 0
-149 63 68 0
149 -63 0
149 -67 -68 0
150 427 -459 0
150 -427 459 0
-150 -427 -459 0
-150 427 459 0
-151 150 152 0
-151 -150 -152 0
151 -150 152 0
151 150 -152 0
-152 63 67 0
-152 63 146 0
152 -63 0
152 -67 -146 0
-153 148 -157 0
-153 -151 154 0
-153 -151 -157 0
-153 148 154 0
153 -148 151 0
153 -154 157 0
-154 -155 -156 0
-154 155 156 0
154 155 -156 0
154 -155 156 0
-155 62 68 0
-155 62 66 0
155 -62 0
155 -66 -68 0
156 428 -460 0
156 -428 460 0
-156 -428 -460 0
-156 428 460 0
-157 156 158 0
-157 -156 -158 0
157 -156 158 0
157 156 -158 0
-158 62 146 0
-158 62 66 0
158 -62 0
158 -66 -146 0
-159 157 -160 0
-159 -154 163 0
-159 -154 -160 0
-159 157 163 0
159 154 -157 0
159 160 -163 0
-160 -161 -162 0
-160 161 162 0
160 161 -162 0
160 -161 162 0
-161 58 61 0
-161 58 155 0
161 -58 0
161 -61 -155 0
162 429 -461 0
162 -429 461 0
-162 -429 -461 0
-162 429 461 0
-163 162 164 0
-163 -162 -164 0
163 -162 164 0
163 162 -164 0
-164 58 61 0
-164 58 158 0
164 -58 0
164 -61 -158 0
-165 160 -169 0
-165 -163 166 0
-165 -163 -169 0
-165 160 166 0
165 -160 163 0
165 -166 169 0
-166 -167 -168 0
-166 167 168 0
166 167 -168 0
166 -167 168 0
-167 57 68 0
-167 57 65 0
167 -57 0
167 -65 -68 0
168 430 -462 0
168 -430 462 0
-168 -430 -462 0
-168 430 462 0
-169 168 170 0
-169 -168 -170 0
169 -168 170 0
169 168 -170 0
-170 57 146 0
-170 57 65 0
170 -57 0
170 -65 -146 0
-171 169 -172 0
-171 -166 175 0
-171 -166 -172 0
-171 169 175 0
171 166 -169 0
171 172 -175 0
-172 -173 -174 0
-172 173 174 0
172 173 -174 0
172 -173 174 0
-173 53 56 0
-173 53 167 0
173 -53 0
173 -56 -167 0
174 431 -463 0
174 -431 463 0
-174 -431 -463 0
-174 431 463 0
-175 174 176 0
-175 -174 -176 0
175 -174 176 0
175 174 -176 0
-176 53 56 0
-176 53 170 0
176 -53 0
176 -56 -170 0
-177 172 -181 0
-177 -175 178 0
-177 -175 -181 0
-177 172 178 0
177 -172 175 0
177 -178 181 0
-178 -179 -180 0
-178 179 180 0
178 179 -180 0
178 -179 180 0
-179 52 167 0
-179 52 55 0
179 -52 0
179 -55 -167 0
180 432 -464 0
180 -432 464 0
-180 -432 -464 0
-180 432 464 0
-181 180 182 0
-181 -180 -182 0
181 -180 182 0
181 180 -182 0
-182 52 170 0
-182 52 55 0
182 -52 0
182 -55 -170 0
-183 181 -184 0
-183 -178 187 0
-183 -178 -184 0
-183 181 187 0
183 178 -181 0
183 184 -187 0
-184 -185 -186 0
-184 185 186 0
184 185 -186 0
184 -185 186 0
-185 48 51 0
-185 48 179 0
185 -48 0
185 -51 -179 0
186 433 -465 0
186 -433 465 0
-186 -433 -465 0
-186 433 465 0
-187 186 188 0
-187 -186 -188 0
187 -186 188 0
187 186 -188 0
-188 48 51 0
-188 48 182 0
188 -48 0
188 -51 -182 0
-189 184 -192 0
-189 -187 190 0
-189 -187 -192 0
-189 184 190 0
189 -184 187 0
189 -190 192 0
-190 -45 -191 0
-190 45 191 0
190 45 -191 0
190 -45 191 0
191 434 -466 0
191 -434 466 0
-191 -434 -466 0
-191 434 466 0
-192 191 193 0
-192 -191 -193 0
192 -191 193 0
192 191 -193 0
-193 46 146 0
-193 46 64 0
193 -46 0
193 -64 -146 0
-194 192 -195 0
-194 -190 198 0
-194 -190 -195 0
-194 192 198 0
194 190 -192 0
194 195 -198 0
-195 -196 -197 0
-195 196 197 0
195 196 -197 0
195 -196 197 0
-196 38 44 0
-196 38 45 0
196 -38 0
196 -44 -45 0
197 435 -467 0
197 -435 467 0
-197 -435 -467 0
-197 435 467 0
-198 197 199 0
-198 -197 -199 0
198 -197 199 0
198 197 -199 0
-199 38 44 0
-199 38 193 0
199 -38 0
199 -44 -193 0
-200 195 -204 0
-200 -198 201 0
-200 -198 -204 0
-200 195 201 0
200 -195 198 0
200 -201 204 0
-201 -202 -203 0
-201 202 203 0
201 202 -203 0
201 -202 203 0
-202 37 45 0
-202 37 43 0
202 -37 0
202 -43 -45 0
203 436 -468 0
203 -436 468 0
-203 -436 -468 0
-203 436 468 0
-204 203 205 0
-204 -203 -205 0
204 -203 205 0
204 203 -205 0
-205 37 193 0
-205 37 43 0
205 -37 0
205 -43 -193 0
-206 204 -207 0
-206 -201 210 0
-206 -201 -207 0
-206 204 210 0
206 201 -204 0
206 207 -210 0
-207 -208 -209 0
-207 208 209 0
207 208 -209 0
207 -208 209 0
-208 35 40 0
-208 35 202 0
208 -35 0
208 -40 -202 0
209 437 -469 0
209 -437 469 0
-209 -437 -469 0
-209 437 469 0
-210 209 211 0
-210 -209 -211 0
210 -209 211 0
210 209 -211 0
-211 35 40 0
-211 35 205 0
211 -35 0
211 -40 -205 0
-212 207 -216 0
-212 -210 213 0
-212 -210 -216 0
-212 207 213 0
212 -207 210 0
212 -213 216 0
-213 -214 -215 0
-213 214 215 0
213 214 -215 0
213 -214 215 0
-214 34 45 0
-214 34 42 0
214 -34 0
214 -42 -45 0
215 438 -470 0
215 -438 470 0
-215 -438 -470 0
-215 438 470 0
-216 215 217 0
-216 -215 -217 0
216 -215 217 0
216 215 -217 0
-217 34 193 0
-217 34 42 0
217 -34 0
217 -42 -193 0
-218 216 -219 0
-218 -213 222 0
-218 -213 -219 0
-218 216 222 0
218 213 -216 0
218 219 -222 0
-219 -220 -221 0
-219 220 221 0
219 220 -221 0
219 -220 221 0
-220 28 33 0
-220 28 214 0
220 -28 0
220 -33 -214 0
221 439 -471 0
221 -439 471 0
-221 -439 -471 0
-221 439 471 0
-222 221 223 0
-222 -221 -223 0
222 -221 223 0
222 221 -223 0
-223 28 33 0
-223 28 217 0
223 -28 0
223 -33 -217 0
-224 219 -228 0
-224 -222 225 0
-224 -222 -228 0
-224 219 225 0
224 -219 222 0
224 -225 228 0
-225 -226 -227 0
-225 226 227 0
225 226 -227 0
225 -226 227 0
-226 27 214 0
-226 27 32 0
226 -27 0
226 -32 -214 0
227 440 -472 0
227 -440 472 0
-227 -440 -472 0
-227 440 472 0
-228 227 229 0
-228 -227 -229 0
228 -227 229 0
228 227 -229 0
-229 27 217 0
-229 27 32 0
229 -27 0
229 -32 -217 0
-230 228 -231 0
-230 -225 234 0
-230 -225 -231 0
-230 228 234 0
230 225 -228 0
230 231 -234 0
-231 -232 -233 0
-231 232 233 0
231 232 -233 0
231 -232 233 0
-232 25 30 0
-232 25 226 0
232 -25 0
232 -30 -226 0
233 441 -473 0
233 -441 473 0
-233 -441 -473 0
-233 441 473 0
-234 233 235 0
-234 -233 -235 0
234 -233 235 0
234 233 -235 0
-235 25 30 0
-235 25 229 0
235 -25 0
235 -30 -229 0
-236 231 -240 0
-236 -234 237 0
-236 -234 -240 0
-236 231 237 0
236 -231 234 0
236 -237 240 0
-237 -238 -239 0
-237 238 239 0
237 238 -239 0
237 -238 239 0
-238 23 45 0
-238 23 41 0
238 -23 0
238 -41 -45 0
239 442 -474 0
239 -442 474 0
-239 -442 -474 0
-239 442 474 0
-240 239 241 0
-240 -239 -241 0
240 -239 241 0
240 239 -241 0
-241 23 193 0
-241 23 41 0
241 -23 0
241 -41 -193 0
-242 240 -243 0
-242 -237 246 0
-242 -237 -243 0
-242 240 246 0
242 237 -240 0
242 243 -246 0
-243 -244 -245 0
-243 244 245 0
243 244 -245 0
243 -244 245 0
-244 21 17 0
-244 21 238 0
244 -21 0
244 -17 -238 0
245 443 -475 0
245 -443 475 0
-245 -443 -475 0
-245 443 475 0
-246 245 247 0
-246 -245 -247 0
246 -245 247 0
246 245 -247 0
-247 21 17 0
-247 21 241 0
247 -21 0
247 -17 -241 0
-248 243 -252 0
-248 -246 249 0
-248 -246 -252 0
-248 243 249 0
248 -243 246 0
248 -249 252 0
-249 -250 -251 0
-249 250 251 0
249 250 -251 0
249 -250 251 0
-250 20 238 0
-250 20 16 0
250 -20 0
250 -16 -238 0
251 444 -476 0
251 -444 476 0
-251 -444 -476 0
-251 444 476 0
-252 251 253 0
-252 -251 -253 0
252 -251 253 0
252 251 -253 0
-253 20 241 0
-253 20 16 0
253 -20 0
253 -16 -241 0
-254 252 -255 0
-254 -249 258 0
-254 -249 -255 0
-254 252 258 0
254 249 -252 0
254 255 -258 0
-255 -256 -257 0
-255 256 257 0
255 256 -257 0
255 -256 257 0
-256 19 238 0
-256 19 15 0
256 -19 0
256 -15 -238 0
257 445 -477 0
257 -445 477 0
-257 -445 -477 0
-257 445 477 0
-258 257 259 0
-258 -257 -259 0
258 -257 259 0
258 257 -259 0
-259 19 241 0
-259 19 15 0
259 -19 0
259 -15 -241 0
-260 255 262 0
-260 -258 -261 0
-260 -258 262 0
-260 255 -261 0
260 -255 258 0
260 261 -262 0
261 446 -478 0
261 -446 478 0
-261 -446 -478 0
-261 446 478 0
-262 -13 -261 0
-262 13 261 0
262 13 -261 0
262 -13 261 0
-263 261 266 0
-263 -262 -264 0
-263 -262 266 0
-263 261 -264 0
263 -261 262 0
263 264 -266 0
-264 -12 -265 0
-264 12 265 0
264 12 -265 0
264 -12 265 0
265 447 -479 0
265 -447 479 0
-265 -447 -479 0
-265 447 479 0
-266 -92 -265 0
-266 92 265 0
266 92 -265 0
266 -92 265 0
-267 264 -270 0
-267 -266 268 0
-267 -266 -270 0
-267 264 268 0
267 -264 266 0
267 -268 270 0
-268 -9 -269 0
-268 9 269 0
268 9 -269 0
268 -9 269 0
269 448 -480 0
269 -448 480 0
-269 -448 -480 0
-269 448 480 0
-270 269 91 0
-270 -269 -91 0
270 -269 91 0
270 269 -91 0
-271 -5 -268 0
-271 270 89 0
-271 -268 89 0
-271 -5 270 0
271 268 -270 0
271 5 -89 0
-272 273 274 0
-272 273 90 0
272 -273 0
272 -274 -90 0
273 -449 -481 0
-273 449 0
-273 481 0
-274 449 481 0
274 -449 0
274 -481 0
-275 6 273 0
-275 273 274 0
275 -273 0
275 -6 -274 0
276 -5 89 0
-276 5 0
-276 -89 0
277 -278 -279 0
277 -279 365 0
277 -278 365 0
-277 279 -365 0
-277 278 279 0
-277 278 -365 0
-278 270 -93 0
-278 268 93 0
278 -268 93 0
278 -270 -93 0
279 -280 -281 0
279 -281 364 0
279 -280 364 0
-279 281 -364 0
-279 280 281 0
-279 280 -364 0
-280 266 -93 0
-280 264 93 0
280 -264 93 0
280 -266 -93 0
281 -282 283 0
281 283 -284 0
281 -282 -284 0
-281 -283 284 0
-281 282 -283 0
-281 282 284 0
-282 262 93 0
-282 261 -93 0
282 -261 -93 0
282 -262 93 0
-283 262 -93 0
-283 261 93 0
283 -261 93 0
283 -262 -93 0
284 -285 -286 0
284 -286 363 0
284 -285 363 0
-284 286 -363 0
-284 285 286 0
-284 285 -363 0
-285 258 -93 0
-285 255 93 0
285 -255 93 0
285 -258 -93 0
286 -287 361 0
286 361 -362 0
286 -287 -362 0
-286 -361 362 0
-286 287 -361 0
-286 287 362 0
287 -288 -289 0
287 -289 360 0
287 -288 360 0
-287 289 -360 0
-287 288 289 0
-287 288 -360 0
-288 246 -93 0
-288 243 93 0
288 -243 93 0
288 -246 -93 0
289 -290 -291 0
289 -291 359 0
289 -290 359 0
-289 291 -359 0
-289 290 291 0
-289 290 -359 0
-290 240 -93 0
-290 237 93 0
290 -237 93 0
290 -240 -93 0
291 -292 293 0
291 293 -294 0
291 -292 -294 0
-291 -293 294 0
-291 292 -293 0
-291 292 294 0
-292 234 -93 0
-292 231 93 0
292 -231 93 0
292 -234 -93 0
-293 234 93 0
-293 231 -93 0
293 -234 93 0
293 -231 -93 0
294 -295 -296 0
294 -296 358 0
294 -295 358 0
-294 296 -358 0
-294 295 296 0
-294 295 -358 0
-295 228 -93 0
-295 225 93 0
295 -225 93 0
295 -228 -93 0
296 -297 -298 0
296 -298 357 0
296 -297 357 0
-296 298 -357 0
-296 297 298 0
-296 297 -357 0
-297 222 -93 0
-297 219 93 0
297 -219 93 0
297 -222 -93 0
298 -299 355 0
298 355 -356 0
298 -299 -356 0
-298 -355 356 0
-298 299 -355 0
-298 299 356 0
299 -300 -301 0
299 -301 354 0
299 -300 354 0
-299 301 -354 0
-299 300 301 0
-299 300 -354 0
-300 210 -93 0
-300 207 93 0
300 -207 93 0
300 -210 -93 0
301 -302 303 0
301 303 -304 0
301 -302 -304 0
-301 -303 304 0
-301 302 -303 0
-301 302 304 0
-302 204 -93 0
-302 201 93 0
302 -201 93 0
302 -204 -93 0
-303 204 93 0
-303 201 -93 0
303 -204 93 0
303 -201 -93 0
304 -305 -306 0
304 -306 353 0
304 -305 353 0
-304 306 -353 0
-304 305 306 0
-304 305 -353 0
-305 198 -93 0
-305 195 93 0
305 -195 93 0
305 -198 -93 0
306 -307 308 0
306 308 -309 0
306 -307 -309 0
-306 -308 309 0
-306 307 -308 0
-306 307 309 0
-307 192 -93 0
-307 190 93 0
307 -190 93 0
307 -192 -93 0
-308 192 93 0
-308 190 -93 0
308 -192 93 0
308 -190 -93 0
309 -310 -311 0
309 -311 352 0
309 -310 352 0
-309 311 -352 0
-309 310 311 0
-309 310 -352 0
-310 187 -93 0
-310 184 93 0
310 -184 93 0
310 -187 -93 0
311 -312 -313 0
311 -313 351 0
311 -312 351 0
-311 313 -351 0
-311 312 313 0
-311 312 -351 0
-312 181 -93 0
-312 178 93 0
312 -178 93 0
312 -181 -93 0
313 -314 349 0
313 349 -350 0
313 -314 -350 0
-313 -349 350 0
-313 314 -349 0
-313 314 350 0
314 -315 -316 0
314 -316 348 0
314 -315 348 0
-314 316 -348 0
-314 315 316 0
-314 315 -348 0
-315 169 -93 0
-315 166 93 0
315 -166 93 0
315 -169 -93 0
316 -317 318 0
316 318 -319 0
316 -317 -319 0
-316 -318 319 0
-316 317 -318 0
-316 317 319 0
-317 163 -93 0
-317 160 93 0
317 -160 93 0
317 -163 -93 0
-318 163 93 0
-318 160 -93 0
318 -163 93 0
318 -160 -93 0
319 -320 -321 0
319 -321 347 0
319 -320 347 0
-319 321 -347 0
-319 320 321 0
-319 320 -347 0
-320 157 -93 0
-320 154 93 0
320 -154 93 0
320 -157 -93 0
321 -322 323 0
321 323 -324 0
321 -322 -324 0
-321 -323 324 0
-321 322 -323 0
-321 322 324 0
-322 151 -93 0
-322 148 93 0
322 -148 93 0
322 -151 -93 0
-323 151 93 0
-323 148 -93 0
323 -151 93 0
323 -148 -93 0
324 -325 -326 0
324 -326 346 0
324 -325 346 0
-324 326 -346 0
-324 325 326 0
-324 325 -346 0
-325 145 -93 0
-325 143 93 0
325 -143 93 0
325 -145 -93 0
326 -327 -328 0
326 -328 345 0
326 -327 345 0
-326 328 -345 0
-326 327 328 0
-326 327 -345 0
-327 140 -93 0
-327 137 93 0
327 -137 93 0
327 -140 -93 0
328 -329 343 0
328 343 -344 0
328 -329 -344 0
-328 -343 344 0
-328 329 -343 0
-328 329 344 0
329 -330 -331 0
329 -331 342 0
329 -330 342 0
-329 331 -342 0
-329 330 331 0
-329 330 -342 0
-330 128 -93 0
-330 125 93 0
330 -125 93 0
330 -128 -93 0
331 -332 -333 0
331 -333 341 0
331 -332 341 0
-331 333 -341 0
-331 332 333 0
-331 332 -341 0
-332 122 -93 0
-332 120 93 0
332 -120 93 0
332 -122 -93 0
333 -334 335 0
333 335 -336 0
333 -334 -336 0
-333 -335 336 0
-333 334 -335 0
-333 334 336 0
-334 117 -93 0
-334 114 93 0
334 -114 93 0
334 -117 -93 0
-335 117 93 0
-335 114 -93 0
335 -117 93 0
335 -114 -93 0
336 -337 -338 0
336 -338 340 0
336 -337 340 0
-336 338 -340 0
-336 337 338 0
-336 337 -340 0
-337 112 -93 0
-337 110 93 0
337 -110 93 0
337 -112 -93 0
338 85 -339 0
338 -85 105 93 0
338 -85 -105 -93 0
-338 85 339 0
-338 -85 -105 93 0
-338 -85 105 -93 0
339 418 450 -93 0
-339 93 0
-339 -450 0
-339 -418 0
-340 112 93 0
-340 110 -93 0
340 -112 93 0
340 -110 -93 0
-341 122 93 0
-341 120 -93 0
341 -122 93 0
341 -120 -93 0
-342 128 93 0
-342 125 -93 0
342 -128 93 0
342 -125 -93 0
-343 134 93 0
-343 131 -93 0
343 -134 93 0
343 -131 -93 0
-344 134 -93 0
-344 131 93 0
344 -131 93 0
344 -134 -93 0
-345 140 93 0
-345 137 -93 0
345 -140 93 0
345 -137 -93 0
-346 145 93 0
-346 143 -93 0
346 -145 93 0
346 -143 -93 0
-347 157 93 0
-347 154 -93 0
347 -157 93 0
347 -154 -93 0
-348 169 93 0
-348 166 -93 0
348 -169 93 0
348 -166 -93 0
-349 175 93 0
-349 172 -93 0
349 -175 93 0
349 -172 -93 0
-350 175 -93 0
-350 172 93 0
350 -172 93 0
350 -175 -93 0
-351 181 93 0
-351 178 -93 0
351 -181 93 0
351 -178 -93 0
-352 187 93 0
-352 184 -93 0
352 -187 93 0
352 -184 -93 0
-353 198 93 0
-353 195 -93 0
353 -198 93 0
353 -195 -93 0
-354 210 93 0
-354 207 -93 0
354 -210 93 0
354 -207 -93 0
-355 216 93 0
-355 213 -93 0
355 -216 93 0
355 -213 -93 0
-356 216 -93 0
-356 213 93 0
356 -213 93 0
356 -216 -93 0
-357 222 93 0
-357 219 -93 0
357 -222 93 0
357 -219 -93 0
-358 228 93 0
-358 225 -93 0
358 -228 93 0
358 -225 -93 0
-359 240 93 0
-359 237 -93 0
359 -240 93 0
359 -237 -93 0
-360 246 93 0
-360 243 -93 0
360 -246 93 0
360 -243 -93 0
-361 252 93 0
-361 249 -93 0
361 -252 93 0
361 -249 -93 0
-362 252 -93 0
-362 249 93 0
362 -249 93 0
362 -252 -93 0
-363 258 93 0
-363 255 -93 0
363 -258 93 0
363 -255 -93 0
-364 266 93 0
-364 264 -93 0
364 -266 93 0
364 -264 -93 0
-365 270 93 0
-365 268 -93 0
365 -270 93 0
365 -268 -93 0
-366 89 93 0
-366 5 -93 0
366 -89 93 0
366 -5 -93 0
367 -272 275 0
367 272 -275 0
-367 272 275 0
-367 -272 -275 0
-368 369 407 410 413 0
368 -413 0
368 -369 0
368 -410 0
368 -407 0
-369 370 398 401 404 0
369 -404 0
369 -370 0
369 -401 0
369 -398 0
-370 371 389 392 395 0
370 -395 0
370 -371 0
370 -392 0
370 -389 0
-371 372 380 383 386 0
371 -386 0
371 -372 0
371 -383 0
371 -380 0
-372 339 373 0
-372 373 375 0
-372 373 377 0
372 -373 0
372 -339 -375 -377 0
-373 -331 -374 0
-373 331 374 0
373 331 -374 0
373 -331 374 0
374 -125 128 0
374 125 -128 0
-374 125 128 0
-374 -125 -128 0
-375 -338 -376 0
-375 338 376 0
375 338 -376 0
375 -338 376 0
376 -110 112 0
376 110 -112 0
-376 110 112 0
-376 -110 -112 0
377 -336 333 378 -379 0
377 336 333 -378 -379 0
377 336 -333 -378 379 0
377 -336 -333 378 379 0
-377 -336 -378 0
-377 336 378 0
-377 333 379 0
-377 -333 -379 0
378 -114 117 0
378 114 -117 0
-378 114 117 0
-378 -114 -117 0
379 -120 122 0
379 120 -122 0
-379 120 122 0
-379 -120 -122 0
-380 -329 328 -381 382 0
-380 329 -328 381 -382 0
-380 329 328 381 382 0
-380 -329 -328 -381 -382 0
380 -329 381 0
380 329 -381 0
380 328 -382 0
380 -328 382 0
381 -131 134 0
381 131 -134 0
-381 131 134 0
-381 -131 -134 0
382 -137 140 0
382 137 -140 0
-382 137 140 0
-382 -137 -140 0
-383 326 -324 384 -385 0
-383 326 324 384 385 0
-383 -326 -324 -384 -385 0
-383 -326 324 -384 385 0
383 -326 384 0
383 326 -384 0
383 324 -385 0
383 -324 385 0
-384 143 145 0
-384 -143 -145 0
384 -143 145 0
384 143 -145 0
385 -148 151 0
385 148 -151 0
-385 148 151 0
-385 -148 -151 0
-386 -321 319 -387 388 0
-386 321 -319 387 -388 0
-386 321 319 387 388 0
-386 -321 -319 -387 -388 0
386 -321 387 0
386 321 -387 0
386 319 -388 0
386 -319 388 0
387 -154 157 0
387 154 -157 0
-387 154 157 0
-387 -154 -157 0
388 -160 163 0
388 160 -163 0
-388 160 163 0
-388 -160 -163 0
-389 -316 314 -390 391 0
-389 316 -314 390 -391 0
-389 316 314 390 391 0
-389 -316 -314 -390 -391 0
389 -316 390 0
389 316 -390 0
389 314 -391 0
389 -314 391 0
390 -166 169 0
390 166 -169 0
-390 166 169 0
-390 -166 -169 0
391 -172 175 0
391 172 -175 0
-391 172 175 0
-391 -172 -175 0
-392 -313 311 -393 394 0
-392 313 -311 393 -394 0
-392 313 311 393 394 0
-392 -313 -311 -393 -394 0
392 -313 393 0
392 313 -393 0
392 311 -394 0
392 -311 394 0
393 -178 181 0
393 178 -181 0
-393 178 181 0
-393 -178 -181 0
394 -184 187 0
394 184 -187 0
-394 184 187 0
-394 -184 -187 0
-395 -309 306 -396 397 0
-395 309 -306 396 -397 0
-395 309 306 396 397 0
-395 -309 -306 -396 -397 0
395 -309 396 0
395 309 -396 0
395 306 -397 0
395 -306 397 0
396 -190 192 0
396 190 -192 0
-396 190 192 0
-396 -190 -192 0
397 -195 198 0
397 195 -198 0
-397 195 198 0
-397 -195 -198 0
-398 -304 301 -399 400 0
-398 304 -301 399 -400 0
-398 304 301 399 400 0
-398 -304 -301 -399 -400 0
398 -304 399 0
398 304 -399 0
398 301 -400 0
398 -301 400 0
399 -201 204 0
399 201 -204 0
-399 201 204 0
-399 -201 -204 0
400 -207 210 0
400 207 -210 0
-400 207 210 0
-400 -207 -210 0
-401 -299 298 -402 403 0
-401 299 -298 402 -403 0
-401 299 298 402 403 0
-401 -299 -298 -402 -403 0
401 -299 402 0
401 299 -402 0
401 298 -403 0
401 -298 403 0
402 -213 216 0
402 213 -216 0
-402 213 216 0
-402 -213 -216 0
403 -219 222 0
403 219 -222 0
-403 219 222 0
-403 -219 -222 0
-404 -296 294 -405 406 0
-404 296 -294 405 -406 0
-404 296 294 405 406 0
-404 -296 -294 -405 -406 0
404 -296 405 0
404 296 -405 0
404 294 -406 0
404 -294 406 0
405 -225 228 0
405 225 -228 0
-405 225 228 0
-405 -225 -228 0
406 -231 234 0
406 231 -234 0
-406 231 234 0
-406 -231 -234 0
-407 -291 289 -408 409 0
-407 291 -289 408 -409 0
-407 291 289 408 409 0
-407 -291 -289 -408 -409 0
407 -291 408 0
407 291 -408 0
407 289 -409 0
407 -289 409 0
408 -237 240 0
408 237 -240 0
-408 237 240 0
-408 -237 -240 0
409 -243 246 0
409 243 -246 0
-409 243 246 0
-409 -243 -246 0
-410 -287 286 -411 412 0
-410 287 -286 411 -412 0
-410 287 286 411 412 0
-410 -287 -286 -411 -412 0
410 -287 411 0
410 287 -411 0
410 286 -412 0
410 -286 412 0
411 -249 252 0
411 249 -252 0
-411 249 252 0
-411 -249 -252 0
412 -255 258 0
412 255 -258 0
-412 255 258 0
-412 -255 -258 0
-413 -282 -283 284 414 0
-413 -282 283 -284 -414 0
-413 282 -283 -284 414 0
-413 282 283 284 414 0
413 284 -414 0
413 -282 283 414 0
413 282 -283 284 0
413 -283 -414 0
413 -282 -284 414 0
413 282 283 -284 0
414 -264 266 0
414 264 -266 0
-414 264 266 0
-414 -264 -266 0
-415 -279 277 -416 417 0
-415 279 -277 416 -417 0
-415 279 277 416 417 0
-415 -279 -277 -416 -417 0
415 -279 416 0
415 279 -416 0
415 277 -417 0
415 -277 417 0
416 -268 270 0
416 268 -270 0
-416 268 270 0
-416 -268 -270 0
417 -5 89 0
417 5 -89 0
-417 5 89 0
-417 -5 -89 0
-482 0
2 0

